(set-info :smt-lib-version 2.6)
(set-logic UFNIRA)
(set-info :source |
Generated by: Mirek Olšák, Mikoláš Janota, Chad E. Brown
Generated on: 2024-04-14
Application: Mathematics challenges involving function synthesis
Publications: https://arxiv.org/abs/2404.12048
From a collection by: Vít Musil
Source url: https://prase.cz/library/FunkcionalniRovniceVM/FunkcionalniRovniceVM.pdf
Problem number: Úloha 72
Original source: PraSe-18-6-2
|)
(set-info :license "https://creativecommons.org/licenses/by-nc/4.0/")
(set-info :category "crafted")
(set-info :status unsat)

; Header
(declare-fun f (Real) Real)

; Equations
(assert (forall ((x Real) (y Real)) (= (f (+ (* 2.0 x) y)) (* (f (+ (* 2.0 y) x)) (f (+ x y))))))

; Find all possible f

; Solutions

(assert (not (forall ((x Real)) (= (f x) 0.0))))

(assert (not (forall ((x Real)) (= (f x) 1.0))))

(check-sat)
(exit)
